c User generated cnf file
p cnf 8 20
4 -2 8 0 
7 4 -5 0 
-3 2 3 0 
8 7 -3 0 
6 6 -2 0 
3 -2 3 0 
-8 7 1 0 
-2 4 4 0 
-7 3 1 0 
-4 2 7 0 
2 -2 6 0 
4 6 -4 0 
8 -8 8 0 
3 3 -3 0 
1 8 -6 0 
4 -3 8 0 
1 -6 8 0 
2 4 -5 0 
-2 2 6 0 
7 4 -1 0 
